2144224
0 6 35813
6 17 261487
17 7 112034
7 14 67784
14 18 105167
18 3 238490
3 15 223221
15 9 21151
9 13 95892
13 4 90180
4 10 43367
10 19 34793
19 5 207524
5 8 292449
8 11 50022
11 12 95140
12 16 27808
16 2 20583
2 1 14476
1 0 106843
